18 44
0 2
7 12
9 10
9 16
4 5
7 8
14 15
6 15
10 13
0 10
5 13
0 1
15 16
5 6
0 15
13 17
7 9
9 11
1 12
14 17
2 3
15 17
3 9
11 13
2 12
3 4
12 14
8 9
1 2
13 14
10 11
6 8
14 16
8 12
16 17
3 5
0 11
12 13
4 6
3 16
4 13
12 17
6 7
1 3
